#######################################################
#CASTEP cell file: castep_in.cell
#Created using the Atomic Simulation Environment (ASE)#
#######################################################

%BLOCK LATTICE_CART
 4.050000  0.000000  0.000000
 0.000000  4.050000  0.000000
 0.000000  0.000000  4.050000
%ENDBLOCK LATTICE_CART

%BLOCK POSITIONS_ABS
Al  0.000000  0.000000  0.000000
Al  2.025000  2.025000  0.000000
Al  2.025000  0.000000  2.025000
Al  0.000000  2.025000  2.025000
%ENDBLOCK POSITIONS_ABS

%BLOCK SPECIES_POT
Al ../DATA/al.gga.recpot
%ENDBLOCK SPECIES_POT

KPOINTS_MP_GRID: 1 1 1
